Tried aggregator 2 times.
MIP Presolve eliminated 8 rows and 5 columns.
MIP Presolve modified 36 coefficients.
Aggregator did 36 substitutions.
Reduced MIP has 130 rows, 117 columns, and 308 nonzeros.
Reduced MIP has 72 binaries, 9 generals, 0 SOSs, and 0 indicators.
Presolve time = 0.00 sec. (0.26 ticks)
Found incumbent of value 4.000000 after 0.00 sec. (0.46 ticks)
Probing fixed 18 vars, tightened 24 bounds.
Probing time = 0.00 sec. (0.23 ticks)
Tried aggregator 3 times.
MIP Presolve eliminated 28 rows and 26 columns.
MIP Presolve modified 17 coefficients.
Aggregator did 42 substitutions.
Reduced MIP has 60 rows, 49 columns, and 153 nonzeros.
Reduced MIP has 37 binaries, 12 generals, 0 SOSs, and 0 indicators.
Presolve time = 0.00 sec. (0.40 ticks)
Probing time = 0.00 sec. (0.06 ticks)
Tried aggregator 1 time.
MIP Presolve modified 2 coefficients.
Reduced MIP has 60 rows, 49 columns, and 153 nonzeros.
Reduced MIP has 37 binaries, 12 generals, 0 SOSs, and 0 indicators.
Presolve time = 0.00 sec. (0.08 ticks)
Probing time = 0.00 sec. (0.06 ticks)
Clique table members: 26.
MIP emphasis: balance optimality and feasibility.
MIP search method: dynamic search.
Parallel mode: deterministic, using up to 4 threads.
Root relaxation solution time = 0.00 sec. (0.09 ticks)

        Nodes                                         Cuts/
   Node  Left     Objective  IInf  Best Integer    Best Bound    ItCnt     Gap

*     0+    0                            4.0000        1.0000       22   75.00%
      0     0        1.0000    24        4.0000        1.0000       22   75.00%
*     0+    0                            2.0000        1.0000       22   50.00%
*     0     0      integral     0        1.0000      Cuts: 22       33    0.00%
      0     0        cutoff              1.0000        1.0000       33    0.00%
Elapsed time = 0.01 sec. (1.95 ticks, tree = 0.00 MB, solutions = 3)

Clique cuts applied:  6
Implied bound cuts applied:  7
Zero-half cuts applied:  2
Gomory fractional cuts applied:  3

Root node processing (before b&c):
  Real time             =    0.01 sec. (1.95 ticks)
Parallel b&c, 4 threads:
  Real time             =    0.00 sec. (0.00 ticks)
  Sync time (average)   =    0.00 sec.
  Wait time (average)   =    0.00 sec.
                          ------------
Total (root+branch&cut) =    0.01 sec. (1.95 ticks)
